data;

param w := 36;
param n := 23;
param min_h := 36;
param max_h := 56;

set BLOCKS := 1 2 3 4 5 6 7 8 9 10 11 12 13 14 15 16 17 18 19 20 21 22 23 ;

param:	width	height :=
	1	12	36
	2	3	36
	3	4	22
	4	5	15
	5	3	24
	6	5	14
	7	3	16
	8	3	15
	9	4	11
	10	3	14
	11	3	12
	12	3	11
	13	3	10
	14	3	9
	15	3	8
	16	3	7
	17	5	4
	18	3	6
	19	3	5
	20	5	3
	21	4	3
	22	3	4
	23	3	3;